     Program PWSCF v.7.2 starts on 16Dec2023 at 12:40:34

     Reading input from relax.in

     Current dimensions of program PWSCF are:
     Max number of different atomic species (ntypx) = 10
     Max number of k-points (npk) =  40000
     Max angular momentum in pseudopotentials (lmaxx) =  4

     K-points division:     npool     =      72
     Subspace diagonalization in iterative solution of the eigenvalue problem:
     a serial algorithm will be used

     Using Slab Decomposition

     bravais-lattice index     =            2
     lattice parameter (alat)  =       8.3574  a.u.
     unit-cell volume          =     145.9330 (a.u.)^3
     number of atoms/cell      =            2
     number of atomic types    =            2
     number of electrons       =        17.50
     number of Kohn-Sham states=           13
     kinetic-energy cutoff     =      80.0000  Ry
     charge density cutoff     =     320.0000  Ry
     scf convergence threshold =      1.0E-12
     mixing beta               =       0.7000
     number of iterations used =            8  plain     mixing
     energy convergence thresh.=      1.0E-04
     force convergence thresh. =      1.0E-03
     press convergence thresh. =      5.0E-01
     Exchange-correlation= PBE
                           (   1   4   3   4   0   0   0)
     nstep                     =           50

     celldm(1)=   8.357400  celldm(2)=   0.000000  celldm(3)=   0.000000
     celldm(4)=   0.000000  celldm(5)=   0.000000  celldm(6)=   0.000000

     crystal axes: (cart. coord. in units of alat)
               a(1) = (  -0.500000   0.000000   0.500000 )
               a(2) = (   0.000000   0.500000   0.500000 )
               a(3) = (  -0.500000   0.500000   0.000000 )

     reciprocal axes: (cart. coord. in units 2 pi/alat)
               b(1) = ( -1.000000 -1.000000  1.000000 )
               b(2) = (  1.000000  1.000000  1.000000 )
               b(3) = ( -1.000000  1.000000 -1.000000 )

     PseudoPot. # 1 for N  read from file:
     ../../pseudo/N.pseudodojo-pbe.upf
     MD5 check sum: d34365f73bb0e2ee98afc20ec3e87676
     Pseudo is Norm-conserving + core correction, Zval =  5.0
     Generated using ONCVPSP code by D. R. Hamann
     Using radial grid of 1058 points,  4 beta functions with:
                l(1) =   0
                l(2) =   0
                l(3) =   1
                l(4) =   1

     PseudoPot. # 2 for Nb read from file:
     ../../pseudo/Nb-rm0.5.oncvpsp-pbe.upf
     MD5 check sum: 5b004251c4f1e3fa535bcb26c6b8eec7
     Pseudo is Norm-conserving + core correction, Zval = 12.5
     Generated using ONCVPSP code by D. R. Hamann
     Using radial grid of 1828 points,  6 beta functions with:
                l(1) =   0
                l(2) =   0
                l(3) =   1
                l(4) =   1
                l(5) =   2
                l(6) =   2

     atomic species   valence    mass     pseudopotential
        N              5.00    14.00670     N ( 1.00)
        Nb            12.50    92.90638     Nb( 1.00)

     No symmetry found

   Cartesian axes

     site n.     atom                  positions (alat units)
         1           N   tau(   1) = (   0.0000000   0.0000000   0.0000000  )
         2           Nb  tau(   2) = (  -0.5000000   0.5000000   0.5000000  )

     number of k points=   868  Marzari-Vanderbilt smearing, width (Ry)=  0.0200

     Number of k-points >= 100: set verbosity='high' to print them.

     Initial potential from superposition of free atoms

     starting charge      17.4951, renormalised to      17.5000
     Starting wfcs are   14 randomized atomic wfcs

     Self-consistent Calculation

     iteration #  1     ecut=    80.00 Ry     beta= 0.70
     Davidson diagonalization with overlap
     ethr =  1.00E-02,  avg # of iterations =  2.2

     total energy              =    -134.22425265 Ry
     estimated scf accuracy    <       1.06342035 Ry

[...]

     End of self-consistent calculation

     Number of k-points >= 100: set verbosity='high' to print the bands.

     the Fermi energy is    20.2831 ev

!    total energy              =    -134.77168376 Ry
     estimated scf accuracy    <          9.2E-14 Ry
     smearing contrib. (-TS)   =      -0.00019106 Ry
     internal energy E=F+TS    =    -134.77149270 Ry

     The total energy is F=E-TS. E is the sum of the following terms:
     one-electron contribution =      -1.63614319 Ry
     hartree contribution      =      13.51565230 Ry
     xc contribution           =     -30.91849391 Ry
     ewald contribution        =    -115.73250790 Ry

     convergence has been achieved in  29 iterations

     Forces acting on atoms (cartesian axes, Ry/au):

     atom    1 type  1   force =     0.00000000    0.00000000   -0.00000000
     atom    2 type  2   force =    -0.00000000   -0.00000000    0.00000000
     The non-local contrib.  to forces
     atom    1 type  1   force =     0.00000000    0.00000000   -0.00000000
     atom    2 type  2   force =     0.00000000    0.00000001   -0.00000001
     The ionic contribution  to forces
     atom    1 type  1   force =     0.00000000   -0.00000000   -0.00000000
     atom    2 type  2   force =    -0.00000000    0.00000000    0.00000000
     The local contribution  to forces
     atom    1 type  1   force =     0.00000000    0.00000000   -0.00000000
     atom    2 type  2   force =    -0.00000001   -0.00000001    0.00000003
     The core correction contribution to forces
     atom    1 type  1   force =     0.00000000    0.00000000   -0.00000000
     atom    2 type  2   force =    -0.00000000   -0.00000000    0.00000000
     The Hubbard contrib.    to forces
     atom    1 type  1   force =     0.00000000    0.00000000    0.00000000
     atom    2 type  2   force =     0.00000000    0.00000000    0.00000000
     The SCF correction term to forces
     atom    1 type  1   force =    -0.00000000   -0.00000000    0.00000000
     atom    2 type  2   force =     0.00000001    0.00000001   -0.00000002

     Total force =     0.000000     Total SCF correction =     0.000000
     SCF correction compared to forces is large: reduce conv_thr to get better values

     Computing stress (Cartesian axis) and pressure

          total   stress  (Ry/bohr**3)                   (kbar)     P=      156.68
   0.00106506  -0.00000000   0.00000000          156.68       -0.00        0.00
  -0.00000000   0.00106506  -0.00000000           -0.00      156.68       -0.00
   0.00000000  -0.00000000   0.00106506            0.00       -0.00      156.68

     BFGS Geometry Optimization
     Energy error            =      0.0E+00 Ry
     Gradient error          =      4.1E-09 Ry/Bohr
     Cell gradient error     =      1.6E+02 kbar

     number of scf cycles    =   1
     number of bfgs steps    =   0

     enthalpy           new  =    -134.7716837616 Ry

     new trust radius        =       0.0643311866 bohr
     new conv_thr            =            1.0E-12 Ry

     new unit-cell volume =    157.90324 a.u.^3 (    23.39885 Ang^3 )
     density =      7.58727 g/cm^3

CELL_PARAMETERS (alat=  8.35740000)
  -0.513313271  -0.000000000   0.513313271
   0.000000000   0.513313271   0.513313271
  -0.513313271   0.513313271  -0.000000000

ATOMIC_POSITIONS (crystal)
N            -0.0000000008       -0.0000000002        0.0000000006
Nb            0.5000000008        0.5000000002        0.4999999994

     Writing config-only to output data dir ./tmp/nbn.save/
     NEW-OLD atomic charge density approx. for the potential
     extrapolated charge   18.82626, renormalised to   17.50000

[...]

     Energy error            =      2.5E-03 Ry
     Gradient error          =      1.5E-09 Ry/Bohr
     Cell gradient error     =      8.0E+01 kbar

[...]

     enthalpy           old  =    -134.7716837616 Ry
     enthalpy           new  =    -134.7741619982 Ry

     CASE: enthalpy          _new < enthalpy          _old

[...]

     Total force =     0.000000     Total SCF correction =     0.000000

[...]

     number of scf cycles    =   3
     number of bfgs steps    =   2

     enthalpy           old  =    -134.7741619982 Ry
     enthalpy           new  =    -134.7754344482 Ry

     CASE: enthalpy          _new < enthalpy          _old

     new trust radius        =       0.0019860546 bohr
     new conv_thr            =            1.0E-14 Ry

     new unit-cell volume =    153.28288 a.u.^3 (    22.71418 Ang^3 )
     density =      7.81597 g/cm^3

[...]

ATOMIC_POSITIONS (crystal)
N            -0.0000000002       -0.0000000001        0.0000000002
Nb            0.5000000002        0.5000000001        0.4999999998

     Writing config-only to output data dir ./tmp/nbn.save/
     NEW-OLD atomic charge density approx. for the potential
     extrapolated charge   17.45789, renormalised to   17.50000

[...]

     Energy error            =      7.8E-06 Ry
     Gradient error          =      5.7E-10 Ry/Bohr
     Cell gradient error     =      3.2E-01 kbar

     bfgs converged in   4 scf cycles and   3 bfgs steps
     (criteria: energy <  1.0E-04 Ry, force <  1.0E-03 Ry/Bohr, cell <  5.0E-01 kbar)

     End of BFGS Geometry Optimization

     Final enthalpy           =    -134.7754422773 Ry

     File ./tmp/nbn.bfgs deleted, as requested
Begin final coordinates
     new unit-cell volume =    153.28288 a.u.^3 (    22.71418 Ang^3 )
     density =      7.81597 g/cm^3

CELL_PARAMETERS (alat=  8.35740000)
  -0.508256988  -0.000000000   0.508256988
   0.000000000   0.508256988   0.508256988
  -0.508256988   0.508256988  -0.000000000

ATOMIC_POSITIONS (crystal)
N            -0.0000000002       -0.0000000001        0.0000000002
Nb            0.5000000002        0.5000000001        0.4999999998
End final coordinates

     Writing config-only to output data dir ./tmp/nbn.save/

     Final scf calculation at the relaxed structure.
     The G-vectors are recalculated for the final unit cell
     Results may differ from those at the preceding step.

     Using Slab Decomposition

     bravais-lattice index     =            2
     lattice parameter (alat)  =       8.3574  a.u.
     unit-cell volume          =     153.2829 (a.u.)^3
     number of atoms/cell      =            2
     number of atomic types    =            2
     number of electrons       =        17.50
     number of Kohn-Sham states=           13
     kinetic-energy cutoff     =      80.0000  Ry
     charge density cutoff     =     320.0000  Ry
     scf convergence threshold =      1.0E-14
     mixing beta               =       0.7000
     number of iterations used =            8  plain     mixing
     press convergence thresh. =      5.0E-01
     Exchange-correlation= PBE
                           (   1   4   3   4   0   0   0)

     celldm(1)=   8.357400  celldm(2)=   0.000000  celldm(3)=   0.000000
     celldm(4)=   0.000000  celldm(5)=   0.000000  celldm(6)=   0.000000

     crystal axes: (cart. coord. in units of alat)
               a(1) = (  -0.508257  -0.000000   0.508257 )
               a(2) = (   0.000000   0.508257   0.508257 )
               a(3) = (  -0.508257   0.508257  -0.000000 )

     reciprocal axes: (cart. coord. in units 2 pi/alat)
               b(1) = ( -0.983754 -0.983754  0.983754 )
               b(2) = (  0.983754  0.983754  0.983754 )
               b(3) = ( -0.983754  0.983754 -0.983754 )

     PseudoPot. # 1 for N  read from file:
     ../../pseudo/N.pseudodojo-pbe.upf
     MD5 check sum: d34365f73bb0e2ee98afc20ec3e87676
     Pseudo is Norm-conserving + core correction, Zval =  5.0
     Generated using ONCVPSP code by D. R. Hamann
     Using radial grid of 1058 points,  4 beta functions with:
                l(1) =   0
                l(2) =   0
                l(3) =   1
                l(4) =   1

     PseudoPot. # 2 for Nb read from file:
     ../../pseudo/Nb-rm0.5.oncvpsp-pbe.upf
     MD5 check sum: 5b004251c4f1e3fa535bcb26c6b8eec7
     Pseudo is Norm-conserving + core correction, Zval = 12.5
     Generated using ONCVPSP code by D. R. Hamann
     Using radial grid of 1828 points,  6 beta functions with:
                l(1) =   0
                l(2) =   0
                l(3) =   1
                l(4) =   1
                l(5) =   2
                l(6) =   2

     atomic species   valence    mass     pseudopotential
        N              5.00    14.00670     N ( 1.00)
        Nb            12.50    92.90638     Nb( 1.00)

     No symmetry found

   Cartesian axes

     site n.     atom                  positions (alat units)
         1           N   tau(   1) = (   0.0000000   0.0000000  -0.0000000  )
         2           Nb  tau(   2) = (  -0.5082570   0.5082570   0.5082570  )

     number of k points=   868  Marzari-Vanderbilt smearing, width (Ry)=  0.0200

     Number of k-points >= 100: set verbosity='high' to print them.

     Initial potential from superposition of free atoms

     starting charge      17.4951, renormalised to      17.5000
     Starting wfcs are   14 randomized atomic wfcs

     Self-consistent Calculation

[...]

     total energy              =    -134.77553144 Ry
     estimated scf accuracy    <          2.5E-14 Ry

     iteration # 23     ecut=    80.00 Ry     beta= 0.70
     Davidson diagonalization with overlap
     ethr =  1.00E-13,  avg # of iterations =  1.0

     End of self-consistent calculation

     Number of k-points >= 100: set verbosity='high' to print the bands.

     the Fermi energy is    19.2326 ev

!    total energy              =    -134.77553144 Ry
     estimated scf accuracy    <          4.5E-15 Ry
     smearing contrib. (-TS)   =      -0.00016891 Ry
     internal energy E=F+TS    =    -134.77536253 Ry

     The total energy is F=E-TS. E is the sum of the following terms:
     one-electron contribution =      -4.20880790 Ry
     hartree contribution      =      14.10336302 Ry
     xc contribution           =     -30.81756482 Ry
     ewald contribution        =    -113.85235283 Ry

     convergence has been achieved in  23 iterations

     Forces acting on atoms (cartesian axes, Ry/au):

     atom    1 type  1   force =    -0.00000000   -0.00000000    0.00000000
     atom    2 type  2   force =     0.00000000    0.00000000   -0.00000000
     The non-local contrib.  to forces
     atom    1 type  1   force =    -0.00000000   -0.00000000    0.00000000
     atom    2 type  2   force =    -0.00000000   -0.00000000    0.00000000
     The ionic contribution  to forces
     atom    1 type  1   force =    -0.00000000   -0.00000000    0.00000001
     atom    2 type  2   force =     0.00000000    0.00000000   -0.00000001
     The local contribution  to forces
     atom    1 type  1   force =     0.00000000    0.00000000   -0.00000001
     atom    2 type  2   force =    -0.00000000   -0.00000000    0.00000001
     The core correction contribution to forces
     atom    1 type  1   force =     0.00000000    0.00000000   -0.00000000
     atom    2 type  2   force =     0.00000000    0.00000000   -0.00000000
     The Hubbard contrib.    to forces
     atom    1 type  1   force =     0.00000000    0.00000000    0.00000000
     atom    2 type  2   force =     0.00000000    0.00000000    0.00000000
     The SCF correction term to forces
     atom    1 type  1   force =     0.00000000    0.00000000    0.00000000
     atom    2 type  2   force =    -0.00000000    0.00000000    0.00000000

     Total force =     0.000000     Total SCF correction =     0.000000
     SCF correction compared to forces is large: reduce conv_thr to get better values

     Computing stress (Cartesian axis) and pressure

          total   stress  (Ry/bohr**3)                   (kbar)     P=        1.76
   0.00001199   0.00000000   0.00000000            1.76        0.00        0.00
   0.00000000   0.00001199  -0.00000000            0.00        1.76       -0.00
   0.00000000  -0.00000000   0.00001199            0.00       -0.00        1.76

     Writing all to output data dir ./tmp/nbn.save/

     General routines

     Parallel routines

   This run was terminated on:  12:41:34  16Dec2023

   JOB DONE.